Route #1: 57 60 58 56 53 54 55
Route #2: 99 100 97 93 92 94 95 96
Route #3: 83 82 84 85 88 98
Route #4: 90 87 86 89 91
Route #5: 21 22 25 27 24 20
Route #6: 47 46 48 45 44 42 43
Route #7: 10 11 9 6
Route #8: 67 65 62 74 63
Route #9: 69 68 59 40 41
Route #10: 75 1 2 4 3 5
Route #11: 66 64 61 72 80 79 81
Route #12: 32 33 36 34 29
Route #13: 18 19 15 16 14 12 8 7
Route #14: 78 76 71 70 73 77
Route #15: 39 38 37 35 31 51 50 52 49
Route #16: 23 26 28 30 17 13
Cost 1220.990690